\ENCODING=ISO-8859-1
\Problem name: ilog.cplex

Maximize
 obj1: 9 x0 + 12 x1 + 28 x2 + 26 x3 + 9 x4 + 12 x5 + 12 x6 + 14 x7 + 3 x8
       + 16 x9 + 10 x10 + 18 x11 + 18 x12 + 18 x13 + 5 x14 + 12 x15 + 12 x16
       + 16 x17 + 18 x18 + 23 x19 + 15 x20 + 14 x21 + 11 x22 + 23 x23 + 23 x24
       + 28 x25 + 24 x26 + 3 x27 + 14 x28 + 18 x29 + 15 x30 + 16 x31 + 23 x32
       + 16 x33 + 10 x34 + 22 x35 + 15 x36 + 23 x37 + 24 x38 + 28 x39 + 26 x40
       + 10 x41 + 18 x42 + 5 x43 + 16 x44 + 24 x45 + 15 x46 + 24 x47 + 22 x48
       + 14 x49 + 23 x50 + 24 x51 + 15 x52 + 18 x53 + 22 x54 + 15 x55 + 26 x56
       + 18 x57 + 24 x58 + 14 x59 + 11 x60 + 18 x61 + 5 x62 + 14 x63 + 4 x64
       + 11 x65 + 8 x66 + 14 x67 + 13 x68 + 8 x69 + 5 x70 + 11 x71 + 13 x72
       + 10 x73 + 18 x74
Subject To
 c1:  x64 + x65 + x66 + x67 + x68 + x69 + x70 + x71 + x72 + x73 + x74 <= 1
 c2:  x0 + x1 + x2 + x3 + x4 + x5 + x16 + x25 + x39 + x40 + x56 + x64 + x65
      + x66 + x67 + x68 + x69 <= 1
 c3:  x0 + x1 + x4 + x5 + x6 + x7 + x8 + x9 + x10 + x11 + x12 + x13 + x14 + x15
      + x16 + x17 + x18 + x21 + x27 + x28 + x29 + x31 + x34 + x41 + x42 + x43
      + x53 + x57 + x61 + x62 + x65 <= 1
 c4:  x1 + x5 + x6 + x7 + x9 + x13 + x15 + x16 + x17 + x18 + x19 + x20 + x21
      + x22 + x23 + x28 + x30 + x31 + x32 + x60 + x61 + x66 + x74 <= 1
 c5:  x2 + x19 + x23 + x24 + x25 + x26 + x32 + x37 + x39 + x47 + x50 + x51
      + x67 + x70 + x71 + x72 <= 1
 c6:  x7 + x8 + x9 + x10 + x11 + x17 + x19 + x20 + x21 + x23 + x24 + x27 + x28
      + x29 + x30 + x31 + x32 + x33 + x34 + x35 + x36 + x37 + x38 + x41 + x44
      + x45 + x48 + x50 + x52 + x53 + x54 + x58 + x71 <= 1
 c7:  x2 + x3 + x10 + x12 + x14 + x25 + x26 + x33 + x34 + x35 + x38 + x39 + x40
      + x41 + x42 + x43 + x44 + x45 + x46 + x47 + x48 + x49 + x51 + x54 + x55
      + x56 + x57 + x58 + x59 + x62 + x63 + x72 <= 1
 c8:  x3 + x11 + x12 + x24 + x26 + x29 + x35 + x36 + x37 + x38 + x40 + x42
      + x45 + x46 + x47 + x48 + x49 + x50 + x51 + x52 + x53 + x54 + x55 + x56
      + x57 + x58 + x59 + x63 + x68 <= 1
 c9:  x13 + x18 + x22 + x60 + x61 + x69 + x73 + x74 <= 1
 c10: x14 + x43 + x49 + x59 + x62 + x63 <= 1
Bounds
 0 <= x0 <= 1
 0 <= x1 <= 1
 0 <= x2 <= 1
 0 <= x3 <= 1
 0 <= x4 <= 1
 0 <= x5 <= 1
 0 <= x6 <= 1
 0 <= x7 <= 1
 0 <= x8 <= 1
 0 <= x9 <= 1
 0 <= x10 <= 1
 0 <= x11 <= 1
 0 <= x12 <= 1
 0 <= x13 <= 1
 0 <= x14 <= 1
 0 <= x15 <= 1
 0 <= x16 <= 1
 0 <= x17 <= 1
 0 <= x18 <= 1
 0 <= x19 <= 1
 0 <= x20 <= 1
 0 <= x21 <= 1
 0 <= x22 <= 1
 0 <= x23 <= 1
 0 <= x24 <= 1
 0 <= x25 <= 1
 0 <= x26 <= 1
 0 <= x27 <= 1
 0 <= x28 <= 1
 0 <= x29 <= 1
 0 <= x30 <= 1
 0 <= x31 <= 1
 0 <= x32 <= 1
 0 <= x33 <= 1
 0 <= x34 <= 1
 0 <= x35 <= 1
 0 <= x36 <= 1
 0 <= x37 <= 1
 0 <= x38 <= 1
 0 <= x39 <= 1
 0 <= x40 <= 1
 0 <= x41 <= 1
 0 <= x42 <= 1
 0 <= x43 <= 1
 0 <= x44 <= 1
 0 <= x45 <= 1
 0 <= x46 <= 1
 0 <= x47 <= 1
 0 <= x48 <= 1
 0 <= x49 <= 1
 0 <= x50 <= 1
 0 <= x51 <= 1
 0 <= x52 <= 1
 0 <= x53 <= 1
 0 <= x54 <= 1
 0 <= x55 <= 1
 0 <= x56 <= 1
 0 <= x57 <= 1
 0 <= x58 <= 1
 0 <= x59 <= 1
 0 <= x60 <= 1
 0 <= x61 <= 1
 0 <= x62 <= 1
 0 <= x63 <= 1
 0 <= x64 <= 1
 0 <= x65 <= 1
 0 <= x66 <= 1
 0 <= x67 <= 1
 0 <= x68 <= 1
 0 <= x69 <= 1
 0 <= x70 <= 1
 0 <= x71 <= 1
 0 <= x72 <= 1
 0 <= x73 <= 1
 0 <= x74 <= 1
Binaries
 x0  x1  x2  x3  x4  x5  x6  x7  x8  x9  x10  x11  x12  x13  x14  x15  x16 
 x17  x18  x19  x20  x21  x22  x23  x24  x25  x26  x27  x28  x29  x30  x31 
 x32  x33  x34  x35  x36  x37  x38  x39  x40  x41  x42  x43  x44  x45  x46 
 x47  x48  x49  x50  x51  x52  x53  x54  x55  x56  x57  x58  x59  x60  x61 
 x62  x63  x64  x65  x66  x67  x68  x69  x70  x71  x72  x73  x74 
End
